(set-logic ALL)
(set-option :produce-models true)
(declare-sort BoundSet 0)
(declare-sort UnboundSet 0)
(set-option :finite-model-find true)
(declare-fun IsBlond (BoundSet) Bool)
(declare-fun HasTattoo (BoundSet BoundSet) Bool)
(declare-fun IsOfAngel (BoundSet BoundSet) Bool)
(declare-fun IsOnArm (BoundSet BoundSet) Bool)
(declare-fun IsPersonWithTattoo (BoundSet) Bool)
(declare-fun IsWalking (BoundSet) Bool)
(declare-fun IsOnStreet (BoundSet BoundSet) Bool)
(assert (not (=> (exists ((b BoundSet)) (exists ((d BoundSet)) (exists ((a BoundSet)) (exists ((c BoundSet)) (and (IsBlond a) (and (HasTattoo a b) (and (IsOfAngel b c) (IsOnArm b d)))))))) (exists ((f BoundSet)) (exists ((e BoundSet)) (and (IsPersonWithTattoo e) (and (IsWalking e) (IsOnStreet e f))))))))
(check-sat)
(get-model)